\ Model TransportationProblem_20
\ LP format - for model browsing. Use MPS format to capture full model detail.
Minimize
  9 sd[0,0] + 9 sd[0,1] + 7 sd[0,2] + 3 sd[0,3] + 9 sd[0,4] + 8 sd[0,5]
   + 3 sd[0,6] + 2 sd[0,7] + 6 sd[0,8] + 5 sd[0,9] + 5 sd[0,10]
   + 6 sd[0,11] + 8 sd[0,12] + 4 sd[0,13] + 7 sd[0,14] + 5 sd[0,15]
   + 4 sd[0,16] + 8 sd[0,17] + 7 sd[0,18] + 2 sd[0,19] + 4 sd[1,0]
   + 6 sd[1,1] + 9 sd[1,2] + 5 sd[1,3] + 7 sd[1,4] + 4 sd[1,5] + 3 sd[1,6]
   + sd[1,7] + 5 sd[1,8] + 3 sd[1,9] + 5 sd[1,10] + 2 sd[1,11] + 8 sd[1,12]
   + 9 sd[1,13] + 3 sd[1,14] + 9 sd[1,15] + 8 sd[1,16] + 2 sd[1,17]
   + 7 sd[1,18] + 9 sd[1,19] + 6 sd[2,0] + 4 sd[2,1] + sd[2,2] + sd[2,3]
   + 3 sd[2,4] + 9 sd[2,5] + 9 sd[2,6] + 3 sd[2,7] + 7 sd[2,8] + 6 sd[2,9]
   + 7 sd[2,10] + 7 sd[2,11] + 7 sd[2,12] + 4 sd[2,13] + 9 sd[2,14]
   + 3 sd[2,15] + 2 sd[2,16] + 5 sd[2,17] + 9 sd[2,18] + 2 sd[2,19]
   + 7 sd[3,0] + 6 sd[3,1] + 2 sd[3,2] + 3 sd[3,3] + 5 sd[3,4] + 8 sd[3,5]
   + 7 sd[3,6] + 5 sd[3,7] + 6 sd[3,8] + 9 sd[3,9] + 4 sd[3,10] + sd[3,11]
   + sd[3,12] + 6 sd[3,13] + 8 sd[3,14] + 6 sd[3,15] + sd[3,16]
   + 9 sd[3,17] + 7 sd[3,18] + 6 sd[3,19] + 2 sd[4,0] + 8 sd[4,1]
   + 5 sd[4,2] + 4 sd[4,3] + 7 sd[4,4] + 2 sd[4,5] + 5 sd[4,6] + sd[4,7]
   + 9 sd[4,8] + 6 sd[4,9] + 5 sd[4,10] + 3 sd[4,11] + 8 sd[4,12]
   + 2 sd[4,13] + 3 sd[4,14] + 2 sd[4,15] + sd[4,16] + 8 sd[4,17]
   + 2 sd[4,18] + 9 sd[4,19] + sd[5,0] + 8 sd[5,1] + sd[5,2] + 6 sd[5,3]
   + 3 sd[5,4] + 6 sd[5,5] + 2 sd[5,6] + 4 sd[5,7] + 4 sd[5,8] + 2 sd[5,9]
   + 9 sd[5,10] + 7 sd[5,11] + 9 sd[5,12] + 2 sd[5,13] + 6 sd[5,14]
   + 8 sd[5,15] + sd[5,16] + 2 sd[5,17] + 6 sd[5,18] + 3 sd[5,19] + sd[6,0]
   + sd[6,1] + 5 sd[6,2] + 7 sd[6,3] + 4 sd[6,4] + 2 sd[6,5] + 9 sd[6,6]
   + 6 sd[6,7] + 6 sd[6,8] + 5 sd[6,9] + 3 sd[6,10] + 8 sd[6,11]
   + 9 sd[6,12] + 8 sd[6,13] + 4 sd[6,14] + 5 sd[6,15] + 9 sd[6,16]
   + 7 sd[6,17] + 4 sd[6,18] + 9 sd[6,19] + 9 sd[7,0] + 6 sd[7,1]
   + 2 sd[7,2] + 4 sd[7,3] + 4 sd[7,4] + 4 sd[7,5] + 3 sd[7,6] + 7 sd[7,7]
   + 6 sd[7,8] + 6 sd[7,9] + 3 sd[7,10] + 6 sd[7,11] + 7 sd[7,12]
   + 2 sd[7,13] + 6 sd[7,14] + sd[7,15] + 6 sd[7,16] + 5 sd[7,17]
   + 9 sd[7,18] + 4 sd[7,19] + 8 sd[8,0] + 6 sd[8,1] + 5 sd[8,2]
   + 6 sd[8,3] + 3 sd[8,4] + 7 sd[8,5] + sd[8,6] + 6 sd[8,7] + 8 sd[8,8]
   + 2 sd[8,9] + 7 sd[8,10] + 8 sd[8,11] + sd[8,12] + 2 sd[8,13]
   + 3 sd[8,14] + 5 sd[8,15] + sd[8,16] + 7 sd[8,17] + 7 sd[8,18]
   + 9 sd[8,19] + 7 sd[9,0] + 6 sd[9,1] + 2 sd[9,2] + 6 sd[9,3] + 5 sd[9,4]
   + 9 sd[9,5] + 4 sd[9,6] + 5 sd[9,7] + 7 sd[9,8] + 3 sd[9,9] + 5 sd[9,10]
   + 8 sd[9,11] + 6 sd[9,12] + 2 sd[9,13] + 4 sd[9,14] + 8 sd[9,15]
   + 5 sd[9,16] + 6 sd[9,17] + 2 sd[9,18] + 3 sd[9,19] + 4 sd[10,0]
   + 7 sd[10,1] + 2 sd[10,2] + 3 sd[10,3] + 7 sd[10,4] + sd[10,5]
   + 6 sd[10,6] + 4 sd[10,7] + 6 sd[10,8] + 3 sd[10,9] + 9 sd[10,10]
   + 8 sd[10,11] + 4 sd[10,12] + sd[10,13] + 5 sd[10,14] + 7 sd[10,15]
   + 3 sd[10,16] + 8 sd[10,17] + 4 sd[10,18] + 2 sd[10,19] + 2 sd[11,0]
   + sd[11,1] + 9 sd[11,2] + sd[11,3] + 9 sd[11,4] + 6 sd[11,5]
   + 4 sd[11,6] + 6 sd[11,7] + 9 sd[11,8] + 4 sd[11,9] + 7 sd[11,10]
   + 2 sd[11,11] + 7 sd[11,12] + 2 sd[11,13] + 3 sd[11,14] + 2 sd[11,15]
   + 3 sd[11,16] + 7 sd[11,17] + 7 sd[11,18] + 2 sd[11,19] + 4 sd[12,0]
   + 4 sd[12,1] + 3 sd[12,2] + 4 sd[12,3] + 3 sd[12,4] + 4 sd[12,5]
   + 4 sd[12,6] + sd[12,7] + 6 sd[12,8] + 2 sd[12,9] + 3 sd[12,10]
   + 2 sd[12,11] + 7 sd[12,12] + 3 sd[12,13] + 2 sd[12,14] + 4 sd[12,15]
   + 7 sd[12,16] + 4 sd[12,17] + sd[12,18] + 5 sd[12,19] + 3 sd[13,0]
   + 8 sd[13,1] + 6 sd[13,2] + 6 sd[13,3] + 4 sd[13,4] + 2 sd[13,5]
   + 9 sd[13,6] + 2 sd[13,7] + 5 sd[13,8] + 7 sd[13,9] + 3 sd[13,10]
   + 7 sd[13,11] + 8 sd[13,12] + 6 sd[13,13] + sd[13,14] + 2 sd[13,15]
   + 6 sd[13,16] + 7 sd[13,17] + 9 sd[13,18] + 9 sd[13,19] + 3 sd[14,0]
   + 7 sd[14,1] + sd[14,2] + 7 sd[14,3] + sd[14,4] + 5 sd[14,5]
   + 4 sd[14,6] + 4 sd[14,7] + 8 sd[14,8] + sd[14,9] + 3 sd[14,10]
   + 3 sd[14,11] + 4 sd[14,12] + 6 sd[14,13] + 7 sd[14,14] + sd[14,15]
   + 7 sd[14,16] + sd[14,17] + 4 sd[14,18] + 8 sd[14,19] + 4 sd[15,0]
   + 9 sd[15,1] + sd[15,2] + 4 sd[15,3] + 9 sd[15,4] + 6 sd[15,5]
   + 8 sd[15,6] + 6 sd[15,7] + 8 sd[15,8] + 5 sd[15,9] + 2 sd[15,10]
   + sd[15,11] + 7 sd[15,12] + 8 sd[15,13] + 8 sd[15,14] + 9 sd[15,15]
   + 5 sd[15,16] + 3 sd[15,17] + 8 sd[15,18] + 6 sd[15,19] + 4 sd[16,0]
   + 7 sd[16,1] + 5 sd[16,2] + sd[16,3] + 7 sd[16,4] + 2 sd[16,5]
   + 9 sd[16,6] + 6 sd[16,7] + 2 sd[16,8] + sd[16,9] + 6 sd[16,10]
   + sd[16,11] + 9 sd[16,12] + 3 sd[16,13] + 7 sd[16,14] + 9 sd[16,15]
   + 3 sd[16,16] + 5 sd[16,17] + 2 sd[16,18] + 2 sd[16,19] + 3 sd[17,0]
   + 3 sd[17,1] + 7 sd[17,2] + 8 sd[17,3] + 9 sd[17,4] + 4 sd[17,5]
   + 5 sd[17,6] + 9 sd[17,7] + 5 sd[17,8] + sd[17,9] + sd[17,10]
   + 5 sd[17,11] + 8 sd[17,12] + 6 sd[17,13] + 3 sd[17,14] + 7 sd[17,15]
   + sd[17,16] + 4 sd[17,17] + 7 sd[17,18] + 9 sd[17,19] + 3 sd[18,0]
   + 2 sd[18,1] + sd[18,2] + 8 sd[18,3] + 6 sd[18,4] + 8 sd[18,5]
   + 7 sd[18,6] + 4 sd[18,7] + sd[18,8] + 5 sd[18,9] + sd[18,10]
   + 3 sd[18,11] + sd[18,12] + 5 sd[18,13] + 8 sd[18,14] + 5 sd[18,15]
   + 7 sd[18,16] + 6 sd[18,17] + 6 sd[18,18] + 6 sd[18,19] + 3 sd[19,0]
   + 7 sd[19,1] + 3 sd[19,2] + 5 sd[19,3] + sd[19,4] + 9 sd[19,5]
   + 3 sd[19,6] + 2 sd[19,7] + 7 sd[19,8] + 2 sd[19,9] + 4 sd[19,10]
   + 3 sd[19,11] + 3 sd[19,12] + 9 sd[19,13] + 3 sd[19,14] + 6 sd[19,15]
   + 3 sd[19,16] + 7 sd[19,17] + 7 sd[19,18] + 6 sd[19,19]
Subject To
 Supply[0]: sd[0,0] + sd[0,1] + sd[0,2] + sd[0,3] + sd[0,4] + sd[0,5]
   + sd[0,6] + sd[0,7] + sd[0,8] + sd[0,9] + sd[0,10] + sd[0,11] + sd[0,12]
   + sd[0,13] + sd[0,14] + sd[0,15] + sd[0,16] + sd[0,17] + sd[0,18]
   + sd[0,19] = 42
 Supply[1]: sd[1,0] + sd[1,1] + sd[1,2] + sd[1,3] + sd[1,4] + sd[1,5]
   + sd[1,6] + sd[1,7] + sd[1,8] + sd[1,9] + sd[1,10] + sd[1,11] + sd[1,12]
   + sd[1,13] + sd[1,14] + sd[1,15] + sd[1,16] + sd[1,17] + sd[1,18]
   + sd[1,19] = 95
 Supply[2]: sd[2,0] + sd[2,1] + sd[2,2] + sd[2,3] + sd[2,4] + sd[2,5]
   + sd[2,6] + sd[2,7] + sd[2,8] + sd[2,9] + sd[2,10] + sd[2,11] + sd[2,12]
   + sd[2,13] + sd[2,14] + sd[2,15] + sd[2,16] + sd[2,17] + sd[2,18]
   + sd[2,19] = 89
 Supply[3]: sd[3,0] + sd[3,1] + sd[3,2] + sd[3,3] + sd[3,4] + sd[3,5]
   + sd[3,6] + sd[3,7] + sd[3,8] + sd[3,9] + sd[3,10] + sd[3,11] + sd[3,12]
   + sd[3,13] + sd[3,14] + sd[3,15] + sd[3,16] + sd[3,17] + sd[3,18]
   + sd[3,19] = 20
 Supply[4]: sd[4,0] + sd[4,1] + sd[4,2] + sd[4,3] + sd[4,4] + sd[4,5]
   + sd[4,6] + sd[4,7] + sd[4,8] + sd[4,9] + sd[4,10] + sd[4,11] + sd[4,12]
   + sd[4,13] + sd[4,14] + sd[4,15] + sd[4,16] + sd[4,17] + sd[4,18]
   + sd[4,19] = 68
 Supply[5]: sd[5,0] + sd[5,1] + sd[5,2] + sd[5,3] + sd[5,4] + sd[5,5]
   + sd[5,6] + sd[5,7] + sd[5,8] + sd[5,9] + sd[5,10] + sd[5,11] + sd[5,12]
   + sd[5,13] + sd[5,14] + sd[5,15] + sd[5,16] + sd[5,17] + sd[5,18]
   + sd[5,19] = 13
 Supply[6]: sd[6,0] + sd[6,1] + sd[6,2] + sd[6,3] + sd[6,4] + sd[6,5]
   + sd[6,6] + sd[6,7] + sd[6,8] + sd[6,9] + sd[6,10] + sd[6,11] + sd[6,12]
   + sd[6,13] + sd[6,14] + sd[6,15] + sd[6,16] + sd[6,17] + sd[6,18]
   + sd[6,19] = 20
 Supply[7]: sd[7,0] + sd[7,1] + sd[7,2] + sd[7,3] + sd[7,4] + sd[7,5]
   + sd[7,6] + sd[7,7] + sd[7,8] + sd[7,9] + sd[7,10] + sd[7,11] + sd[7,12]
   + sd[7,13] + sd[7,14] + sd[7,15] + sd[7,16] + sd[7,17] + sd[7,18]
   + sd[7,19] = 51
 Supply[8]: sd[8,0] + sd[8,1] + sd[8,2] + sd[8,3] + sd[8,4] + sd[8,5]
   + sd[8,6] + sd[8,7] + sd[8,8] + sd[8,9] + sd[8,10] + sd[8,11] + sd[8,12]
   + sd[8,13] + sd[8,14] + sd[8,15] + sd[8,16] + sd[8,17] + sd[8,18]
   + sd[8,19] = 33
 Supply[9]: sd[9,0] + sd[9,1] + sd[9,2] + sd[9,3] + sd[9,4] + sd[9,5]
   + sd[9,6] + sd[9,7] + sd[9,8] + sd[9,9] + sd[9,10] + sd[9,11] + sd[9,12]
   + sd[9,13] + sd[9,14] + sd[9,15] + sd[9,16] + sd[9,17] + sd[9,18]
   + sd[9,19] = 96
 Supply[10]: sd[10,0] + sd[10,1] + sd[10,2] + sd[10,3] + sd[10,4]
   + sd[10,5] + sd[10,6] + sd[10,7] + sd[10,8] + sd[10,9] + sd[10,10]
   + sd[10,11] + sd[10,12] + sd[10,13] + sd[10,14] + sd[10,15] + sd[10,16]
   + sd[10,17] + sd[10,18] + sd[10,19] = 54
 Supply[11]: sd[11,0] + sd[11,1] + sd[11,2] + sd[11,3] + sd[11,4]
   + sd[11,5] + sd[11,6] + sd[11,7] + sd[11,8] + sd[11,9] + sd[11,10]
   + sd[11,11] + sd[11,12] + sd[11,13] + sd[11,14] + sd[11,15] + sd[11,16]
   + sd[11,17] + sd[11,18] + sd[11,19] = 41
 Supply[12]: sd[12,0] + sd[12,1] + sd[12,2] + sd[12,3] + sd[12,4]
   + sd[12,5] + sd[12,6] + sd[12,7] + sd[12,8] + sd[12,9] + sd[12,10]
   + sd[12,11] + sd[12,12] + sd[12,13] + sd[12,14] + sd[12,15] + sd[12,16]
   + sd[12,17] + sd[12,18] + sd[12,19] = 47
 Supply[13]: sd[13,0] + sd[13,1] + sd[13,2] + sd[13,3] + sd[13,4]
   + sd[13,5] + sd[13,6] + sd[13,7] + sd[13,8] + sd[13,9] + sd[13,10]
   + sd[13,11] + sd[13,12] + sd[13,13] + sd[13,14] + sd[13,15] + sd[13,16]
   + sd[13,17] + sd[13,18] + sd[13,19] = 17
 Supply[14]: sd[14,0] + sd[14,1] + sd[14,2] + sd[14,3] + sd[14,4]
   + sd[14,5] + sd[14,6] + sd[14,7] + sd[14,8] + sd[14,9] + sd[14,10]
   + sd[14,11] + sd[14,12] + sd[14,13] + sd[14,14] + sd[14,15] + sd[14,16]
   + sd[14,17] + sd[14,18] + sd[14,19] = 70
 Supply[15]: sd[15,0] + sd[15,1] + sd[15,2] + sd[15,3] + sd[15,4]
   + sd[15,5] + sd[15,6] + sd[15,7] + sd[15,8] + sd[15,9] + sd[15,10]
   + sd[15,11] + sd[15,12] + sd[15,13] + sd[15,14] + sd[15,15] + sd[15,16]
   + sd[15,17] + sd[15,18] + sd[15,19] = 89
 Supply[16]: sd[16,0] + sd[16,1] + sd[16,2] + sd[16,3] + sd[16,4]
   + sd[16,5] + sd[16,6] + sd[16,7] + sd[16,8] + sd[16,9] + sd[16,10]
   + sd[16,11] + sd[16,12] + sd[16,13] + sd[16,14] + sd[16,15] + sd[16,16]
   + sd[16,17] + sd[16,18] + sd[16,19] = 27
 Supply[17]: sd[17,0] + sd[17,1] + sd[17,2] + sd[17,3] + sd[17,4]
   + sd[17,5] + sd[17,6] + sd[17,7] + sd[17,8] + sd[17,9] + sd[17,10]
   + sd[17,11] + sd[17,12] + sd[17,13] + sd[17,14] + sd[17,15] + sd[17,16]
   + sd[17,17] + sd[17,18] + sd[17,19] = 21
 Supply[18]: sd[18,0] + sd[18,1] + sd[18,2] + sd[18,3] + sd[18,4]
   + sd[18,5] + sd[18,6] + sd[18,7] + sd[18,8] + sd[18,9] + sd[18,10]
   + sd[18,11] + sd[18,12] + sd[18,13] + sd[18,14] + sd[18,15] + sd[18,16]
   + sd[18,17] + sd[18,18] + sd[18,19] = 37
 Supply[19]: sd[19,0] + sd[19,1] + sd[19,2] + sd[19,3] + sd[19,4]
   + sd[19,5] + sd[19,6] + sd[19,7] + sd[19,8] + sd[19,9] + sd[19,10]
   + sd[19,11] + sd[19,12] + sd[19,13] + sd[19,14] + sd[19,15] + sd[19,16]
   + sd[19,17] + sd[19,18] + sd[19,19] = 16
 Demand[0]: sd[0,0] + sd[1,0] + sd[2,0] + sd[3,0] + sd[4,0] + sd[5,0]
   + sd[6,0] + sd[7,0] + sd[8,0] + sd[9,0] + sd[10,0] + sd[11,0] + sd[12,0]
   + sd[13,0] + sd[14,0] + sd[15,0] + sd[16,0] + sd[17,0] + sd[18,0]
   + sd[19,0] = 25
 Demand[1]: sd[0,1] + sd[1,1] + sd[2,1] + sd[3,1] + sd[4,1] + sd[5,1]
   + sd[6,1] + sd[7,1] + sd[8,1] + sd[9,1] + sd[10,1] + sd[11,1] + sd[12,1]
   + sd[13,1] + sd[14,1] + sd[15,1] + sd[16,1] + sd[17,1] + sd[18,1]
   + sd[19,1] = 20
 Demand[2]: sd[0,2] + sd[1,2] + sd[2,2] + sd[3,2] + sd[4,2] + sd[5,2]
   + sd[6,2] + sd[7,2] + sd[8,2] + sd[9,2] + sd[10,2] + sd[11,2] + sd[12,2]
   + sd[13,2] + sd[14,2] + sd[15,2] + sd[16,2] + sd[17,2] + sd[18,2]
   + sd[19,2] = 44
 Demand[3]: sd[0,3] + sd[1,3] + sd[2,3] + sd[3,3] + sd[4,3] + sd[5,3]
   + sd[6,3] + sd[7,3] + sd[8,3] + sd[9,3] + sd[10,3] + sd[11,3] + sd[12,3]
   + sd[13,3] + sd[14,3] + sd[15,3] + sd[16,3] + sd[17,3] + sd[18,3]
   + sd[19,3] = 68
 Demand[4]: sd[0,4] + sd[1,4] + sd[2,4] + sd[3,4] + sd[4,4] + sd[5,4]
   + sd[6,4] + sd[7,4] + sd[8,4] + sd[9,4] + sd[10,4] + sd[11,4] + sd[12,4]
   + sd[13,4] + sd[14,4] + sd[15,4] + sd[16,4] + sd[17,4] + sd[18,4]
   + sd[19,4] = 67
 Demand[5]: sd[0,5] + sd[1,5] + sd[2,5] + sd[3,5] + sd[4,5] + sd[5,5]
   + sd[6,5] + sd[7,5] + sd[8,5] + sd[9,5] + sd[10,5] + sd[11,5] + sd[12,5]
   + sd[13,5] + sd[14,5] + sd[15,5] + sd[16,5] + sd[17,5] + sd[18,5]
   + sd[19,5] = 27
 Demand[6]: sd[0,6] + sd[1,6] + sd[2,6] + sd[3,6] + sd[4,6] + sd[5,6]
   + sd[6,6] + sd[7,6] + sd[8,6] + sd[9,6] + sd[10,6] + sd[11,6] + sd[12,6]
   + sd[13,6] + sd[14,6] + sd[15,6] + sd[16,6] + sd[17,6] + sd[18,6]
   + sd[19,6] = 51
 Demand[7]: sd[0,7] + sd[1,7] + sd[2,7] + sd[3,7] + sd[4,7] + sd[5,7]
   + sd[6,7] + sd[7,7] + sd[8,7] + sd[9,7] + sd[10,7] + sd[11,7] + sd[12,7]
   + sd[13,7] + sd[14,7] + sd[15,7] + sd[16,7] + sd[17,7] + sd[18,7]
   + sd[19,7] = 28
 Demand[8]: sd[0,8] + sd[1,8] + sd[2,8] + sd[3,8] + sd[4,8] + sd[5,8]
   + sd[6,8] + sd[7,8] + sd[8,8] + sd[9,8] + sd[10,8] + sd[11,8] + sd[12,8]
   + sd[13,8] + sd[14,8] + sd[15,8] + sd[16,8] + sd[17,8] + sd[18,8]
   + sd[19,8] = 27
 Demand[9]: sd[0,9] + sd[1,9] + sd[2,9] + sd[3,9] + sd[4,9] + sd[5,9]
   + sd[6,9] + sd[7,9] + sd[8,9] + sd[9,9] + sd[10,9] + sd[11,9] + sd[12,9]
   + sd[13,9] + sd[14,9] + sd[15,9] + sd[16,9] + sd[17,9] + sd[18,9]
   + sd[19,9] = 49
 Demand[10]: sd[0,10] + sd[1,10] + sd[2,10] + sd[3,10] + sd[4,10]
   + sd[5,10] + sd[6,10] + sd[7,10] + sd[8,10] + sd[9,10] + sd[10,10]
   + sd[11,10] + sd[12,10] + sd[13,10] + sd[14,10] + sd[15,10] + sd[16,10]
   + sd[17,10] + sd[18,10] + sd[19,10] = 56
 Demand[11]: sd[0,11] + sd[1,11] + sd[2,11] + sd[3,11] + sd[4,11]
   + sd[5,11] + sd[6,11] + sd[7,11] + sd[8,11] + sd[9,11] + sd[10,11]
   + sd[11,11] + sd[12,11] + sd[13,11] + sd[14,11] + sd[15,11] + sd[16,11]
   + sd[17,11] + sd[18,11] + sd[19,11] = 16
 Demand[12]: sd[0,12] + sd[1,12] + sd[2,12] + sd[3,12] + sd[4,12]
   + sd[5,12] + sd[6,12] + sd[7,12] + sd[8,12] + sd[9,12] + sd[10,12]
   + sd[11,12] + sd[12,12] + sd[13,12] + sd[14,12] + sd[15,12] + sd[16,12]
   + sd[17,12] + sd[18,12] + sd[19,12] = 34
 Demand[13]: sd[0,13] + sd[1,13] + sd[2,13] + sd[3,13] + sd[4,13]
   + sd[5,13] + sd[6,13] + sd[7,13] + sd[8,13] + sd[9,13] + sd[10,13]
   + sd[11,13] + sd[12,13] + sd[13,13] + sd[14,13] + sd[15,13] + sd[16,13]
   + sd[17,13] + sd[18,13] + sd[19,13] = 26
 Demand[14]: sd[0,14] + sd[1,14] + sd[2,14] + sd[3,14] + sd[4,14]
   + sd[5,14] + sd[6,14] + sd[7,14] + sd[8,14] + sd[9,14] + sd[10,14]
   + sd[11,14] + sd[12,14] + sd[13,14] + sd[14,14] + sd[15,14] + sd[16,14]
   + sd[17,14] + sd[18,14] + sd[19,14] = 97
 Demand[15]: sd[0,15] + sd[1,15] + sd[2,15] + sd[3,15] + sd[4,15]
   + sd[5,15] + sd[6,15] + sd[7,15] + sd[8,15] + sd[9,15] + sd[10,15]
   + sd[11,15] + sd[12,15] + sd[13,15] + sd[14,15] + sd[15,15] + sd[16,15]
   + sd[17,15] + sd[18,15] + sd[19,15] = 40
 Demand[16]: sd[0,16] + sd[1,16] + sd[2,16] + sd[3,16] + sd[4,16]
   + sd[5,16] + sd[6,16] + sd[7,16] + sd[8,16] + sd[9,16] + sd[10,16]
   + sd[11,16] + sd[12,16] + sd[13,16] + sd[14,16] + sd[15,16] + sd[16,16]
   + sd[17,16] + sd[18,16] + sd[19,16] = 95
 Demand[17]: sd[0,17] + sd[1,17] + sd[2,17] + sd[3,17] + sd[4,17]
   + sd[5,17] + sd[6,17] + sd[7,17] + sd[8,17] + sd[9,17] + sd[10,17]
   + sd[11,17] + sd[12,17] + sd[13,17] + sd[14,17] + sd[15,17] + sd[16,17]
   + sd[17,17] + sd[18,17] + sd[19,17] = 25
 Demand[18]: sd[0,18] + sd[1,18] + sd[2,18] + sd[3,18] + sd[4,18]
   + sd[5,18] + sd[6,18] + sd[7,18] + sd[8,18] + sd[9,18] + sd[10,18]
   + sd[11,18] + sd[12,18] + sd[13,18] + sd[14,18] + sd[15,18] + sd[16,18]
   + sd[17,18] + sd[18,18] + sd[19,18] = 77
 Demand[19]: sd[0,19] + sd[1,19] + sd[2,19] + sd[3,19] + sd[4,19]
   + sd[5,19] + sd[6,19] + sd[7,19] + sd[8,19] + sd[9,19] + sd[10,19]
   + sd[11,19] + sd[12,19] + sd[13,19] + sd[14,19] + sd[15,19] + sd[16,19]
   + sd[17,19] + sd[18,19] + sd[19,19] = 74
Bounds
End
